0 27 29
1 18 33
2 29 29
3 25 29
4 23 31
5 10 29
6 19 27
7 10 23
8 21 21
9 12 17
10 12 16
11 8 16
12 15 15
13 13 13
14 7 12
15 9 11
16 7 8
17 2 8
18 5 6
19 5 6
20 4 5
21 2 4
22 3 3
23 1 3
24 1 2
25 1 2
26 1 2
27 1 1

